(set-logic QF_SLIA)
(declare-fun var0 () String)
(declare-fun var1 () String)
(declare-fun var2 () String)
(declare-fun var3 () String)
(declare-fun var5 () String)
(declare-fun var6 () String)
(declare-fun var7 () String)
(declare-fun var8 () String)
(declare-fun var9 () String)
(declare-fun var10 () String)
(declare-fun var11 () String)
(declare-fun var12 () String)
(declare-fun var13 () String)
(declare-fun var14 () String)
(declare-fun var15 () String)
(declare-fun var16 () String)
(declare-fun var17 () String)
(declare-fun var18 () String)
(declare-fun var19 () String)
(declare-fun var20 () String)
(declare-fun var21 () String)
(declare-fun var22 () String)
(declare-fun var23 () String)
(declare-fun var24 () String)
(declare-fun var4 () Int)
(assert (= (str.substr (str.++ var0 var1) 0 136) (str.substr (str.++ var2 var3) 0 136)))
(assert (and (or (<= var4 11) (not (str.suffixof var5 var6))) (< (str.len var7) (str.len var8))))
(assert (not (>= (str.len var9) (str.len var10))))
(assert (str.suffixof (str.substr (str.++ var11 var12) 0 137) (str.substr (str.substr var13 92 161) 0 2)))
(assert (not (> (str.len var14) (str.len var11))))
(assert (not (str.suffixof (str.replace var15 var17 var16) (str.replace var11 var18 var2))))
(assert (and (str.contains var14 var7) (str.prefixof var1 var7)))
(assert (str.suffixof (str.substr (str.++ (str.replace var10 var19 var0) (str.replace var0 var20 var8)) 0 2) (str.substr (str.++ (str.++ var16 var7) (str.++ var8 var7)) 67 2)))
(assert (str.prefixof (str.++ var19 var8) (str.++ var18 var13)))
(assert (not (> (str.indexof (str.replace var0 var21 var7) (str.substr var17 0 68) (str.indexof var22 var23 var4)) (str.indexof (str.replace var16 var24 var12) (str.substr var18 0 68) (str.len var19)))))
(assert (= var3 "LMj4lX1DR9uatCx2fyQpoDhaZyOWn2VwOZPqO0NHiWjCVlCDCoYRA30vj7R0BYDK1sKl88mUsdb0tOur4ga1BAVl91aewk56nSgDLNLyTYbZbr6X3Q8wcCtrZ7BGoZSgZI5sMcf06ca4tsnJWRiVMhiGhYWCA3EsnXUrdkKtwNzs3VsKbZSDk6EuL04Wgd5MR2lEiHMs9bSp"))
(assert (= var16 "6ca4tsnJWRiVMhiGhYWCA3EsnXUrdkKtwNzs3VsKbZSDk6EuL04Wgd5MR2lEiHMs9bSpLMj4lX1DR9uatCx2fyQpoDhaZyOWn2VwOZPqO0NHiWjCVlCDCoYRA30vj7R0BYDK1sKl88mUsdb0tOur4ga1BAVl91aewk56nSgDLNLyTYbZbr6X3Q8wcCtrZ7BGoZSgZI5sMcf0LMj4lX1DR9uatCx2fyQpoDhaZyOWn2VwOZPqO0NHiWjCVlCDCoYRA30vj7R0BYDK1sKl88mUsdb0tOur4ga1BAVl91aewk56nSgDLNLyTYbZbr6X3Q8wcCtrZ7BGoZSgZI5sMcf0"))
(assert (= var16 "6ca4tsnJWRiVMhiGhYWCA3EsnXUrdkKtwNzs3VsKbZSDk6EuL04Wgd5MR2lEiHMs9bSpLMj4lX1DR9uatCx2fyQpoDhaZyOWn2VwOZPqO0NHiWjCVlCDCoYRA30vj7R0BYDK1sKl88mUsdb0tOur4ga1BAVl91aewk56nSgDLNLyTYbZbr6X3Q8wcCtrZ7BGoZSgZI5sMcf0LMj4lX1DR9uatCx2fyQpoDhaZyOWn2VwOZPqO0NHiWjCVlCDCoYRA30vj7R0BYDK1sKl88mUsdb0tOur4ga1BAVl91aewk56nSgDLNLyTYbZbr6X3Q8wcCtrZ7BGoZSgZI5sMcf0"))
(assert (= (str.len var7) 0))
(check-sat)
